(set-info :smt-lib-version 2.6)
(set-logic QF_LRA)
(set-info :source |
TLP-GP automated DTP to SMT-LIB encoding for planning
by F.Maris and P.Regnier, IRIT - Universite Paul Sabatier, Toulouse

|)
(set-info :category "industrial")
(set-info :status sat)
(declare-fun St_spy_variable () Real)
(declare-fun t_Init_0 () Real)
(declare-fun t_Goal_6 () Real)
(declare-fun t_TREAT_CERAMIC2_p2_3 () Real)
(declare-fun t_BAKE_CERAMIC2_p2_k2_2 () Real)
(declare-fun t_TREAT_CERAMIC1_p1_3 () Real)
(declare-fun t_BAKE_CERAMIC1_p1_k2_2 () Real)
(declare-fun t_MAKE_STRUCTURE_p1_p2_4 () Real)
(declare-fun t_BAKE_STRUCTURE_p1_p2_k1_5 () Real)
(declare-fun t_BAKE_CERAMIC3_p4_k2_2 () Real)
(declare-fun t_TREAT_CERAMIC3_p4_3 () Real)
(declare-fun t_BAKE_CERAMIC3_p4_k1_3 () Real)
(declare-fun t_TREAT_CERAMIC2_p3_3 () Real)
(declare-fun t_BAKE_CERAMIC2_p3_k2_2 () Real)
(declare-fun t_MAKE_STRUCTURE_p3_p4_4 () Real)
(declare-fun t_BAKE_STRUCTURE_p3_p4_k1_5 () Real)
(declare-fun t_BAKE_CERAMIC3_p6_k2_2 () Real)
(declare-fun t_TREAT_CERAMIC3_p6_3 () Real)
(declare-fun t_BAKE_CERAMIC3_p6_k1_3 () Real)
(declare-fun t_FIRE_KILN2_k2_1 () Real)
(declare-fun t_BAKE_CERAMIC3_p5_k2_2 () Real)
(declare-fun t_TREAT_CERAMIC3_p5_3 () Real)
(declare-fun t_FIRE_KILN1_k1_2 () Real)
(declare-fun t_BAKE_CERAMIC3_p5_k1_3 () Real)
(declare-fun t_MAKE_STRUCTURE_p5_p6_4 () Real)
(declare-fun t_BAKE_STRUCTURE_p5_p6_k1_5 () Real)
(declare-fun t_FIRE_KILN1_k1_1 () Real)
(declare-fun t_BAKE_CERAMIC3_p7_k1_2 () Real)
(assert (let ((?v_10 (- t_Goal_6 t_BAKE_STRUCTURE_p1_p2_k1_5)) (?v_20 (- t_Goal_6 t_BAKE_STRUCTURE_p3_p4_k1_5)) (?v_30 (- t_Goal_6 t_BAKE_STRUCTURE_p5_p6_k1_5)) (?v_32 (- t_Goal_6 t_BAKE_CERAMIC3_p7_k1_2)) (?v_0 (- t_TREAT_CERAMIC2_p2_3 t_BAKE_CERAMIC2_p2_k2_2)) (?v_26 (- t_BAKE_CERAMIC3_p5_k2_2 t_FIRE_KILN2_k2_1))) (let ((?v_3 (<= ?v_26 15)) (?v_21 (- t_BAKE_CERAMIC3_p6_k2_2 t_FIRE_KILN2_k2_1))) (let ((?v_4 (<= ?v_21 15)) (?v_15 (- t_BAKE_CERAMIC2_p3_k2_2 t_FIRE_KILN2_k2_1))) (let ((?v_5 (<= ?v_15 10)) (?v_11 (- t_BAKE_CERAMIC3_p4_k2_2 t_FIRE_KILN2_k2_1))) (let ((?v_6 (<= ?v_11 15)) (?v_8 (- t_BAKE_CERAMIC1_p1_k2_2 t_FIRE_KILN2_k2_1))) (let ((?v_7 (<= ?v_8 5)) (?v_1 (- t_BAKE_CERAMIC2_p2_k2_2 t_FIRE_KILN2_k2_1)) (?v_2 (- t_TREAT_CERAMIC1_p1_3 t_BAKE_CERAMIC1_p1_k2_2)) (?v_31 (- t_BAKE_CERAMIC3_p7_k1_2 t_FIRE_KILN1_k1_1))) (let ((?v_16 (<= ?v_31 3)) (?v_29 (- t_BAKE_STRUCTURE_p5_p6_k1_5 t_FIRE_KILN1_k1_1))) (let ((?v_17 (<= ?v_29 5)) (?v_19 (- t_BAKE_STRUCTURE_p3_p4_k1_5 t_FIRE_KILN1_k1_1))) (let ((?v_18 (<= ?v_19 5)) (?v_9 (- t_BAKE_STRUCTURE_p1_p2_k1_5 t_FIRE_KILN1_k1_1)) (?v_12 (- t_TREAT_CERAMIC3_p4_3 t_BAKE_CERAMIC3_p4_k2_2)) (?v_28 (- t_BAKE_CERAMIC3_p5_k1_3 t_FIRE_KILN1_k1_2))) (let ((?v_23 (<= ?v_28 3)) (?v_25 (- t_BAKE_CERAMIC3_p6_k1_3 t_FIRE_KILN1_k1_2))) (let ((?v_24 (<= ?v_25 3)) (?v_13 (- t_BAKE_CERAMIC3_p4_k1_3 t_FIRE_KILN1_k1_2)) (?v_14 (- t_TREAT_CERAMIC2_p3_3 t_BAKE_CERAMIC2_p3_k2_2)) (?v_22 (- t_TREAT_CERAMIC3_p6_3 t_BAKE_CERAMIC3_p6_k2_2)) (?v_27 (- t_TREAT_CERAMIC3_p5_3 t_BAKE_CERAMIC3_p5_k2_2)) (?v_51 (- t_BAKE_CERAMIC3_p5_k1_3 t_FIRE_KILN1_k1_1)) (?v_33 (> (- t_FIRE_KILN1_k1_2 t_FIRE_KILN1_k1_1) 8))) (let ((?v_39 (or (<= ?v_51 3) ?v_33)) (?v_47 (- t_BAKE_CERAMIC3_p6_k1_3 t_FIRE_KILN1_k1_1))) (let ((?v_40 (or (<= ?v_47 3) ?v_33)) (?v_38 (- t_BAKE_CERAMIC3_p4_k1_3 t_FIRE_KILN1_k1_1)) (?v_37 (> (- t_FIRE_KILN1_k1_1 t_FIRE_KILN1_k1_2) 8)) (?v_36 (- t_BAKE_CERAMIC3_p4_k2_2 t_BAKE_CERAMIC3_p4_k1_3)) (?v_34 (- t_BAKE_CERAMIC3_p4_k1_3 t_BAKE_CERAMIC3_p4_k2_2))) (let ((?v_35 (or (< ?v_34 5) (> ?v_34 5))) (?v_45 (or (<= (- t_BAKE_CERAMIC3_p7_k1_2 t_FIRE_KILN1_k1_2) 3) ?v_37)) (?v_46 (or (<= (- t_BAKE_STRUCTURE_p5_p6_k1_5 t_FIRE_KILN1_k1_2) 5) ?v_37)) (?v_41 (- t_BAKE_STRUCTURE_p3_p4_k1_5 t_FIRE_KILN1_k1_2)) (?v_44 (- t_BAKE_CERAMIC3_p6_k2_2 t_BAKE_CERAMIC3_p6_k1_3)) (?v_42 (- t_BAKE_CERAMIC3_p6_k1_3 t_BAKE_CERAMIC3_p6_k2_2))) (let ((?v_43 (or (< ?v_42 5) (> ?v_42 5))) (?v_50 (- t_BAKE_CERAMIC3_p5_k2_2 t_BAKE_CERAMIC3_p5_k1_3)) (?v_48 (- t_BAKE_CERAMIC3_p5_k1_3 t_BAKE_CERAMIC3_p5_k2_2))) (let ((?v_49 (or (< ?v_48 5) (> ?v_48 5)))) (and (= St_spy_variable (+ 1 t_Init_0)) (>= t_Goal_6 t_Init_0) (>= (- t_TREAT_CERAMIC2_p2_3 t_Init_0) 0) (>= (- t_Goal_6 t_TREAT_CERAMIC2_p2_3) 2) (>= (- t_BAKE_CERAMIC2_p2_k2_2 t_Init_0) 0) (>= (- t_Goal_6 t_BAKE_CERAMIC2_p2_k2_2) 10) (>= (- t_TREAT_CERAMIC1_p1_3 t_Init_0) 0) (>= (- t_Goal_6 t_TREAT_CERAMIC1_p1_3) 3) (>= (- t_BAKE_CERAMIC1_p1_k2_2 t_Init_0) 0) (>= (- t_Goal_6 t_BAKE_CERAMIC1_p1_k2_2) 15) (>= (- t_MAKE_STRUCTURE_p1_p2_4 t_Init_0) 0) (>= (- t_Goal_6 t_MAKE_STRUCTURE_p1_p2_4) 1) (>= (- t_BAKE_STRUCTURE_p1_p2_k1_5 t_Init_0) 0) (>= ?v_10 3) (>= (- t_BAKE_CERAMIC3_p4_k2_2 t_Init_0) 0) (>= (- t_Goal_6 t_BAKE_CERAMIC3_p4_k2_2) 5) (>= (- t_TREAT_CERAMIC3_p4_3 t_Init_0) 0) (>= (- t_Goal_6 t_TREAT_CERAMIC3_p4_3) 1) (>= (- t_BAKE_CERAMIC3_p4_k1_3 t_Init_0) 0) (>= (- t_Goal_6 t_BAKE_CERAMIC3_p4_k1_3) 5) (>= (- t_TREAT_CERAMIC2_p3_3 t_Init_0) 0) (>= (- t_Goal_6 t_TREAT_CERAMIC2_p3_3) 2) (>= (- t_BAKE_CERAMIC2_p3_k2_2 t_Init_0) 0) (>= (- t_Goal_6 t_BAKE_CERAMIC2_p3_k2_2) 10) (>= (- t_MAKE_STRUCTURE_p3_p4_4 t_Init_0) 0) (>= (- t_Goal_6 t_MAKE_STRUCTURE_p3_p4_4) 1) (>= (- t_BAKE_STRUCTURE_p3_p4_k1_5 t_Init_0) 0) (>= ?v_20 3) (>= (- t_BAKE_CERAMIC3_p6_k2_2 t_Init_0) 0) (>= (- t_Goal_6 t_BAKE_CERAMIC3_p6_k2_2) 5) (>= (- t_TREAT_CERAMIC3_p6_3 t_Init_0) 0) (>= (- t_Goal_6 t_TREAT_CERAMIC3_p6_3) 1) (>= (- t_BAKE_CERAMIC3_p6_k1_3 t_Init_0) 0) (>= (- t_Goal_6 t_BAKE_CERAMIC3_p6_k1_3) 5) (>= (- t_FIRE_KILN2_k2_1 t_Init_0) 0) (>= (- t_Goal_6 t_FIRE_KILN2_k2_1) 20) (>= (- t_BAKE_CERAMIC3_p5_k2_2 t_Init_0) 0) (>= (- t_Goal_6 t_BAKE_CERAMIC3_p5_k2_2) 5) (>= (- t_TREAT_CERAMIC3_p5_3 t_Init_0) 0) (>= (- t_Goal_6 t_TREAT_CERAMIC3_p5_3) 1) (>= (- t_FIRE_KILN1_k1_2 t_Init_0) 0) (>= (- t_Goal_6 t_FIRE_KILN1_k1_2) 8) (>= (- t_BAKE_CERAMIC3_p5_k1_3 t_Init_0) 0) (>= (- t_Goal_6 t_BAKE_CERAMIC3_p5_k1_3) 5) (>= (- t_MAKE_STRUCTURE_p5_p6_4 t_Init_0) 0) (>= (- t_Goal_6 t_MAKE_STRUCTURE_p5_p6_4) 1) (>= (- t_BAKE_STRUCTURE_p5_p6_k1_5 t_Init_0) 0) (>= ?v_30 3) (>= (- t_FIRE_KILN1_k1_1 t_Init_0) 0) (>= (- t_Goal_6 t_FIRE_KILN1_k1_1) 8) (>= (- t_BAKE_CERAMIC3_p7_k1_2 t_Init_0) 0) (>= ?v_32 5) (<= ?v_0 8) (< ?v_0 8) (>= ?v_0 0) (>= (- t_MAKE_STRUCTURE_p1_p2_4 t_TREAT_CERAMIC2_p2_3) 2) ?v_3 ?v_4 ?v_5 ?v_6 ?v_7 (<= ?v_1 10) (< ?v_1 10) (>= ?v_1 0) (>= (- t_MAKE_STRUCTURE_p1_p2_4 t_BAKE_CERAMIC2_p2_k2_2) 10) (<= ?v_2 12) (< ?v_2 12) (>= ?v_2 0) (>= (- t_MAKE_STRUCTURE_p1_p2_4 t_TREAT_CERAMIC1_p1_3) 3) ?v_3 ?v_4 ?v_5 ?v_6 ?v_7 (< ?v_8 5) (>= ?v_8 0) (>= (- t_MAKE_STRUCTURE_p1_p2_4 t_BAKE_CERAMIC1_p1_k2_2) 15) (>= (- t_BAKE_STRUCTURE_p1_p2_k1_5 t_MAKE_STRUCTURE_p1_p2_4) 1) ?v_16 ?v_17 ?v_18 (<= ?v_9 5) (< ?v_9 5) (>= ?v_9 0) (>= ?v_10 4) ?v_3 ?v_4 ?v_5 ?v_6 (< ?v_11 15) (>= ?v_11 0) (<= ?v_12 4) (>= ?v_12 0) (>= (- t_MAKE_STRUCTURE_p3_p4_4 t_TREAT_CERAMIC3_p4_3) 1) ?v_23 ?v_24 (<= ?v_13 3) (< ?v_13 3) (>= ?v_13 0) (>= (- t_MAKE_STRUCTURE_p3_p4_4 t_BAKE_CERAMIC3_p4_k1_3) 5) (<= ?v_14 8) (< ?v_14 8) (>= ?v_14 0) (>= (- t_MAKE_STRUCTURE_p3_p4_4 t_TREAT_CERAMIC2_p3_3) 2) ?v_3 ?v_4 ?v_5 (< ?v_15 10) (>= ?v_15 0) (>= (- t_MAKE_STRUCTURE_p3_p4_4 t_BAKE_CERAMIC2_p3_k2_2) 10) (>= (- t_BAKE_STRUCTURE_p3_p4_k1_5 t_MAKE_STRUCTURE_p3_p4_4) 1) ?v_16 ?v_17 ?v_18 (< ?v_19 5) (>= ?v_19 0) (>= ?v_20 4) ?v_3 ?v_4 (< ?v_21 15) (>= ?v_21 0) (<= ?v_22 4) (>= ?v_22 0) (>= (- t_MAKE_STRUCTURE_p5_p6_4 t_TREAT_CERAMIC3_p6_3) 1) ?v_23 ?v_24 (< ?v_25 3) (>= ?v_25 0) (>= (- t_MAKE_STRUCTURE_p5_p6_4 t_BAKE_CERAMIC3_p6_k1_3) 5) ?v_3 (>= ?v_26 0) (<= ?v_27 4) (>= ?v_27 0) (>= (- t_MAKE_STRUCTURE_p5_p6_4 t_TREAT_CERAMIC3_p5_3) 1) ?v_23 (>= ?v_28 0) (>= (- t_MAKE_STRUCTURE_p5_p6_4 t_BAKE_CERAMIC3_p5_k1_3) 5) (>= (- t_BAKE_STRUCTURE_p5_p6_k1_5 t_MAKE_STRUCTURE_p5_p6_4) 1) ?v_16 ?v_17 (< ?v_29 5) (>= ?v_29 0) (>= ?v_30 4) ?v_16 (>= ?v_31 0) (>= ?v_32 6) ?v_39 ?v_40 (or (<= ?v_38 3) ?v_33) (or ?v_37 (< (- t_BAKE_STRUCTURE_p1_p2_k1_5 t_FIRE_KILN1_k1_2) 5)) (or (>= (- t_BAKE_CERAMIC3_p4_k2_2 t_MAKE_STRUCTURE_p3_p4_4) 1) (< ?v_36 5)) ?v_35 ?v_35 (or (> ?v_36 5) (< (- t_TREAT_CERAMIC3_p4_3 t_BAKE_CERAMIC3_p4_k1_3) 4)) ?v_45 ?v_46 (or (<= ?v_41 5) ?v_37) (or ?v_33 (< ?v_38 3)) ?v_39 ?v_40 (or ?v_37 (< ?v_41 5)) (or (>= (- t_BAKE_CERAMIC3_p6_k2_2 t_MAKE_STRUCTURE_p5_p6_4) 1) (< ?v_44 5)) ?v_43 ?v_43 (or (> ?v_44 5) (< (- t_TREAT_CERAMIC3_p6_3 t_BAKE_CERAMIC3_p6_k1_3) 4)) ?v_45 ?v_46 (or ?v_33 (< ?v_47 3)) (or (>= (- t_BAKE_CERAMIC3_p5_k2_2 t_MAKE_STRUCTURE_p5_p6_4) 1) (< ?v_50 5)) ?v_49 ?v_49 (or (> ?v_50 5) (< (- t_TREAT_CERAMIC3_p5_3 t_BAKE_CERAMIC3_p5_k1_3) 4)) ?v_45 ?v_46 (or ?v_33 (< ?v_51 3))))))))))))))))))))
(check-sat)
(exit)
